p cnf  7 20
c 1,2,3 inputs
c 5, 6 outputs
c 7 miteroutput
c with miter
-4 -1 -2 0
-4 1 2 0
4 -1 2 0
4 1 -2 0
-5 4 3 0
-5 -4 -3 0
5 -4 3 0
5 4 -3 0
-6 -1 2 -3 0
-6 -1 -2 3 0
-6 1 -2 -3 0
-6 1 2 3 0
6 -1 2 3 0
6 -1 -2 -3 0
6 1 -2 3 0
6 1 2 -3 0
-7 -5 -6 0
-7 5 6 0
7 -5 6 0
7 5 -6 0

